
Gurobi 7.0.2 (linux64, Matlab) logging started Sun Sep  2 08:56:08 2018


Gurobi 7.0.2 (linux64) logging started Sun Sep  2 08:56:08 2018

Optimize a model with 34288 rows, 27194 columns and 230068 nonzeros
Coefficient statistics:
  Matrix range     [4e-02, 4e+02]
  Objective range  [1e-02, 1e+01]
  Bounds range     [7e-01, 2e+03]
  RHS range        [1e+00, 2e+03]
Iteration    Objective       Primal Inf.    Dual Inf.      Time
       0    6.8966482e+03   0.000000e+00   0.000000e+00      0s

Solved in 0 iterations and 0.02 seconds
Optimal objective  6.896648177e+03
